NAME : n60w200.001.526.tour
COMMENT : Length = 526
COMMENT : Found by LKH [Keld Helsgaun] Tue Nov  7 19:39:23 2017
TYPE : TOUR
DIMENSION : 61
TOUR_SECTION
1
7
51
44
58
18
2
20
52
37
48
38
39
30
27
59
6
13
40
57
21
19
31
16
45
24
41
49
47
17
8
32
9
42
46
35
55
29
25
43
23
14
53
33
34
56
15
26
11
60
5
36
22
12
3
10
28
61
54
50
4
-1
EOF
